Band structure along high-symmetry path
30
Line-mode
reciprocal
0.000000 0.000000 0.000000  ! Γ
0.500000 0.000000 0.500000  ! X

0.500000 0.000000 0.500000  ! X
0.625000 0.250000 0.625000  ! U

0.375000 0.375000 0.750000  ! K
0.000000 0.000000 0.000000  ! Γ

0.000000 0.000000 0.000000  ! Γ
0.500000 0.500000 0.500000  ! L

0.500000 0.500000 0.500000  ! L
0.500000 0.250000 0.750000  ! W

0.500000 0.250000 0.750000  ! W
0.500000 0.000000 0.500000  ! X

