Trigonal
30
Line-mode
reciprocal
 0.000000  0.500000 -0.500000   ! F_1
 0.000000  0.000000  0.000000   ! Gamma

 0.000000  0.000000  0.000000   ! Gamma
 0.000000  0.500000  0.000000   ! L

