generated by phonopy                    
   1.00000000000000     
     2.0670000000000002    1.1933830064149564    9.5433333333333330
    -2.0670000000000002    1.1933830064149564    9.5433333333333330
     0.0000000000000000   -2.3867660128299129    9.5433333333333330
  Bi              Se            
     2     3
Direct
     0.5995161559793871    0.5995161559793871    0.5995161559793871
     0.4004838440206129    0.4004838440206129    0.4004838440206129
     0.0000000000000000    0.0000000000000000    0.0000000000000000
     0.2114995448625550    0.2114995448625550    0.2114995448625550
     0.7885004551374450    0.7885004551374450    0.7885004551374450
 
  0.00000000E+00  0.00000000E+00  0.00000000E+00
  0.00000000E+00  0.00000000E+00  0.00000000E+00
  0.00000000E+00  0.00000000E+00  0.00000000E+00
  0.00000000E+00  0.00000000E+00  0.00000000E+00
  0.00000000E+00  0.00000000E+00  0.00000000E+00
