0.050   9   9   1   12  0.050   68    3   25   14   29           # Parameters to Generate KPOINTS (Do NOT Edit This Line)
    80
Reciprocal lattice
    0.00000000000000    0.00000000000000    0.00000000000000     1
    0.11111111111111    0.00000000000000    0.00000000000000     6
    0.22222222222222    0.00000000000000    0.00000000000000     6
    0.33333333333333    0.00000000000000    0.00000000000000     6
    0.44444444444444    0.00000000000000    0.00000000000000     6
    0.11111111111111    0.11111111111111    0.00000000000000     6
    0.22222222222222    0.11111111111111    0.00000000000000    12
    0.33333333333333    0.11111111111111    0.00000000000000    12
    0.44444444444444    0.11111111111111    0.00000000000000     6
    0.22222222222222    0.22222222222222    0.00000000000000     6
    0.33333333333333    0.22222222222222    0.00000000000000    12
    0.33333333333333    0.33333333333333    0.00000000000000     2
    0.00000000000000    0.00000000000000    0.00000000000000     0
    0.02083333333333    0.00000000000000    0.00000000000000     0
    0.04166666666667    0.00000000000000    0.00000000000000     0
    0.06250000000000    0.00000000000000    0.00000000000000     0
    0.08333333333333    0.00000000000000    0.00000000000000     0
    0.10416666666667    0.00000000000000    0.00000000000000     0
    0.12500000000000    0.00000000000000    0.00000000000000     0
    0.14583333333333    0.00000000000000    0.00000000000000     0
    0.16666666666667    0.00000000000000    0.00000000000000     0
    0.18750000000000    0.00000000000000    0.00000000000000     0
    0.20833333333333    0.00000000000000    0.00000000000000     0
    0.22916666666667    0.00000000000000    0.00000000000000     0
    0.25000000000000    0.00000000000000    0.00000000000000     0
    0.27083333333333    0.00000000000000    0.00000000000000     0
    0.29166666666667    0.00000000000000    0.00000000000000     0
    0.31250000000000    0.00000000000000    0.00000000000000     0
    0.33333333333333    0.00000000000000    0.00000000000000     0
    0.35416666666667    0.00000000000000    0.00000000000000     0
    0.37500000000000    0.00000000000000    0.00000000000000     0
    0.39583333333333    0.00000000000000    0.00000000000000     0
    0.41666666666667    0.00000000000000    0.00000000000000     0
    0.43750000000000    0.00000000000000    0.00000000000000     0
    0.45833333333333    0.00000000000000    0.00000000000000     0
    0.47916666666667    0.00000000000000    0.00000000000000     0
    0.50000000000000    0.00000000000000    0.00000000000000     0
    0.50000000000000    0.00000000000000    0.00000000000000     0
    0.48717948717692    0.02564102563846    0.00000000000000     0
    0.47435897435385    0.05128205127692    0.00000000000000     0
    0.46153846153077    0.07692307691538    0.00000000000000     0
    0.44871794870769    0.10256410255385    0.00000000000000     0
    0.43589743588462    0.12820512819231    0.00000000000000     0
    0.42307692306154    0.15384615383077    0.00000000000000     0
    0.41025641023846    0.17948717946923    0.00000000000000     0
    0.39743589741538    0.20512820510769    0.00000000000000     0
    0.38461538459231    0.23076923074615    0.00000000000000     0
    0.37179487176923    0.25641025638462    0.00000000000000     0
    0.35897435894615    0.28205128202308    0.00000000000000     0
    0.34615384612308    0.30769230766154    0.00000000000000     0
    0.33333333330000    0.33333333330000    0.00000000000000     0
    0.33333333330000    0.33333333330000    0.00000000000000     0
    0.32142857139643    0.32142857139643    0.00000000000000     0
    0.30952380949286    0.30952380949286    0.00000000000000     0
    0.29761904758929    0.29761904758929    0.00000000000000     0
    0.28571428568571    0.28571428568571    0.00000000000000     0
    0.27380952378214    0.27380952378214    0.00000000000000     0
    0.26190476187857    0.26190476187857    0.00000000000000     0
    0.24999999997500    0.24999999997500    0.00000000000000     0
    0.23809523807143    0.23809523807143    0.00000000000000     0
    0.22619047616786    0.22619047616786    0.00000000000000     0
    0.21428571426429    0.21428571426429    0.00000000000000     0
    0.20238095236071    0.20238095236071    0.00000000000000     0
    0.19047619045714    0.19047619045714    0.00000000000000     0
    0.17857142855357    0.17857142855357    0.00000000000000     0
    0.16666666665000    0.16666666665000    0.00000000000000     0
    0.15476190474643    0.15476190474643    0.00000000000000     0
    0.14285714284286    0.14285714284286    0.00000000000000     0
    0.13095238093929    0.13095238093929    0.00000000000000     0
    0.11904761903571    0.11904761903571    0.00000000000000     0
    0.10714285713214    0.10714285713214    0.00000000000000     0
    0.09523809522857    0.09523809522857    0.00000000000000     0
    0.08333333332500    0.08333333332500    0.00000000000000     0
    0.07142857142143    0.07142857142143    0.00000000000000     0
    0.05952380951786    0.05952380951786    0.00000000000000     0
    0.04761904761429    0.04761904761429    0.00000000000000     0
    0.03571428571071    0.03571428571071    0.00000000000000     0
    0.02380952380714    0.02380952380714    0.00000000000000     0
    0.01190476190357    0.01190476190357    0.00000000000000     0
    0.00000000000000    0.00000000000000    0.00000000000000     0
