0.050   9   9   1   12  0.050   62    3   23   13   26           # Parameters to Generate KPOINTS (Do NOT Edit This Line)
    74
Reciprocal lattice
    0.00000000000000    0.00000000000000    0.00000000000000     1
    0.11111111111111    0.00000000000000    0.00000000000000     6
    0.22222222222222    0.00000000000000    0.00000000000000     6
    0.33333333333333    0.00000000000000    0.00000000000000     6
    0.44444444444444    0.00000000000000    0.00000000000000     6
    0.11111111111111    0.11111111111111    0.00000000000000     6
    0.22222222222222    0.11111111111111    0.00000000000000    12
    0.33333333333333    0.11111111111111    0.00000000000000    12
    0.44444444444444    0.11111111111111    0.00000000000000     6
    0.22222222222222    0.22222222222222    0.00000000000000     6
    0.33333333333333    0.22222222222222    0.00000000000000    12
    0.33333333333333    0.33333333333333    0.00000000000000     2
    0.00000000000000    0.00000000000000    0.00000000000000     0
    0.02272727272727    0.00000000000000    0.00000000000000     0
    0.04545454545455    0.00000000000000    0.00000000000000     0
    0.06818181818182    0.00000000000000    0.00000000000000     0
    0.09090909090909    0.00000000000000    0.00000000000000     0
    0.11363636363636    0.00000000000000    0.00000000000000     0
    0.13636363636364    0.00000000000000    0.00000000000000     0
    0.15909090909091    0.00000000000000    0.00000000000000     0
    0.18181818181818    0.00000000000000    0.00000000000000     0
    0.20454545454545    0.00000000000000    0.00000000000000     0
    0.22727272727273    0.00000000000000    0.00000000000000     0
    0.25000000000000    0.00000000000000    0.00000000000000     0
    0.27272727272727    0.00000000000000    0.00000000000000     0
    0.29545454545455    0.00000000000000    0.00000000000000     0
    0.31818181818182    0.00000000000000    0.00000000000000     0
    0.34090909090909    0.00000000000000    0.00000000000000     0
    0.36363636363636    0.00000000000000    0.00000000000000     0
    0.38636363636364    0.00000000000000    0.00000000000000     0
    0.40909090909091    0.00000000000000    0.00000000000000     0
    0.43181818181818    0.00000000000000    0.00000000000000     0
    0.45454545454545    0.00000000000000    0.00000000000000     0
    0.47727272727273    0.00000000000000    0.00000000000000     0
    0.50000000000000    0.00000000000000    0.00000000000000     0
    0.50000000000000    0.00000000000000    0.00000000000000     0
    0.48611111110833    0.02777777777500    0.00000000000000     0
    0.47222222221667    0.05555555555000    0.00000000000000     0
    0.45833333332500    0.08333333332500    0.00000000000000     0
    0.44444444443333    0.11111111110000    0.00000000000000     0
    0.43055555554167    0.13888888887500    0.00000000000000     0
    0.41666666665000    0.16666666665000    0.00000000000000     0
    0.40277777775833    0.19444444442500    0.00000000000000     0
    0.38888888886667    0.22222222220000    0.00000000000000     0
    0.37499999997500    0.24999999997500    0.00000000000000     0
    0.36111111108333    0.27777777775000    0.00000000000000     0
    0.34722222219167    0.30555555552500    0.00000000000000     0
    0.33333333330000    0.33333333330000    0.00000000000000     0
    0.33333333330000    0.33333333330000    0.00000000000000     0
    0.31999999996800    0.31999999996800    0.00000000000000     0
    0.30666666663600    0.30666666663600    0.00000000000000     0
    0.29333333330400    0.29333333330400    0.00000000000000     0
    0.27999999997200    0.27999999997200    0.00000000000000     0
    0.26666666664000    0.26666666664000    0.00000000000000     0
    0.25333333330800    0.25333333330800    0.00000000000000     0
    0.23999999997600    0.23999999997600    0.00000000000000     0
    0.22666666664400    0.22666666664400    0.00000000000000     0
    0.21333333331200    0.21333333331200    0.00000000000000     0
    0.19999999998000    0.19999999998000    0.00000000000000     0
    0.18666666664800    0.18666666664800    0.00000000000000     0
    0.17333333331600    0.17333333331600    0.00000000000000     0
    0.15999999998400    0.15999999998400    0.00000000000000     0
    0.14666666665200    0.14666666665200    0.00000000000000     0
    0.13333333332000    0.13333333332000    0.00000000000000     0
    0.11999999998800    0.11999999998800    0.00000000000000     0
    0.10666666665600    0.10666666665600    0.00000000000000     0
    0.09333333332400    0.09333333332400    0.00000000000000     0
    0.07999999999200    0.07999999999200    0.00000000000000     0
    0.06666666666000    0.06666666666000    0.00000000000000     0
    0.05333333332800    0.05333333332800    0.00000000000000     0
    0.03999999999600    0.03999999999600    0.00000000000000     0
    0.02666666666400    0.02666666666400    0.00000000000000     0
    0.01333333333200    0.01333333333200    0.00000000000000     0
    0.00000000000000    0.00000000000000    0.00000000000000     0
